data;
set V := 1 2 3 4 5;
set A := (1, 2) (1, 3) (2, 4) (3, 2) (3, 4) (4, 5);

param s := 1;
param t := 5;
param K := 10;
param c [1,2] 1 [1,3] 1 [2,4] 1 [3,2] 1 [3,4] 4 [4,5] 1;
param w [1,2] 2 [1,3] 2 [2,4] 1 [3,2] 1 [3,4] 2 [4,5] 2;
end;
